(set-info :smt-lib-version 2.6)
(set-logic QF_LIRA)
(set-info :source |Submitted by David Monniaux <David.Monniaux@imag.fr>|)
(set-info :category "industrial")
(set-info :status unknown)
(declare-fun x_add.i.i.i10_ () Real)
(declare-fun x_add.i.i.i_ () Int)
(declare-fun x_conv2.i.i.i_ () Int)
(declare-fun x_conv87.i.i.i_ () Real)
(declare-fun x_mul86.i.i.i_ () Real)
(assert (= x_add.i.i.i_ (+ x_conv2.i.i.i_ 1)))
(assert (= x_add.i.i.i10_ (+ x_conv87.i.i.i_ x_mul86.i.i.i_)))
(check-sat)
(exit)
